* ENCODING=ISO-8859-1
NAME          CPLEX
ROWS
 N  obj1    
 G  c1      
 G  c2      
 G  c3      
 G  c4      
 G  c5      
 G  c6      
 G  c7      
 G  c8      
 G  c9      
 G  c10     
 G  c11     
 G  c12     
 G  c13     
 G  c14     
 G  c15     
 G  c16     
 G  c17     
 G  c18     
 G  c19     
 G  c20     
 G  c21     
 G  c22     
 G  c23     
 G  c24     
 G  c25     
 G  c26     
 G  c27     
 G  c28     
 G  c29     
 G  c30     
 G  c31     
 G  c32     
 G  c33     
 G  c34     
 G  c35     
 G  c36     
 G  c37     
 G  c38     
 G  c39     
 G  c40     
COLUMNS
    MARK0000  'MARKER'                 'INTORG'
    x1        obj1                            1
    x1        c2                            503
    x1        c5                            840
    x2        obj1                            1
    x2        c7                            635
    x2        c13                           466
    x2        c27                           313
    x3        obj1                            1
    x3        c8                            489
    x4        obj1                            1
    x4        c4                            910
    x4        c5                            737
    x4        c13                           705
    x4        c24                           568
    x4        c25                           466
    x4        c35                           271
    x4        c38                           853
    x5        obj1                            1
    x5        c3                            692
    x5        c30                           318
    x6        obj1                            1
    x6        c19                           758
    x6        c31                           922
    x6        c36                           384
    x7        obj1                            1
    x7        c39                           753
    x7        c40                           921
    x8        obj1                            1
    x8        c1                            932
    x9        obj1                            1
    x9        c8                            112
    x9        c28                           527
    x9        c31                           892
    x9        c33                           629
    x10       obj1                            1
    x10       c32                           800
    x11       obj1                            1
    x11       c3                            128
    x11       c25                           807
    x11       c37                           516
    x11       c38                           437
    x12       obj1                            1
    x12       c2                            290
    x12       c15                           643
    x12       c16                           983
    x12       c18                           622
    x12       c19                           713
    x12       c34                           406
    x13       obj1                            1
    x13       c17                           358
    x13       c18                           529
    x13       c19                           934
    x13       c32                           730
    x13       c36                           428
    x13       c37                           758
    x14       obj1                            1
    x14       c13                           406
    x14       c22                           443
    x14       c23                           482
    x14       c28                           149
    x14       c36                           485
    x15       obj1                            1
    x15       c5                            613
    x15       c24                           737
    x15       c33                           388
    x15       c35                           318
    x16       obj1                            1
    x16       c3                            762
    x16       c13                           420
    x16       c25                           318
    x16       c30                           231
    x17       obj1                            1
    x17       c4                            156
    x17       c9                            618
    x17       c10                           473
    x17       c11                           835
    x17       c14                           385
    x17       c30                           724
    x18       obj1                            1
    x18       c21                           998
    x18       c23                           444
    x18       c30                           223
    x18       c34                           488
    x19       obj1                            1
    x19       c1                            979
    x19       c6                            630
    x19       c8                            672
    x19       c17                           834
    x19       c26                           673
    x19       c28                           131
    x20       obj1                            1
    x20       c6                            923
    x20       c15                           840
    x21       obj1                            1
    x21       c5                            343
    x21       c26                           489
    x21       c28                           211
    x22       obj1                            1
    x22       c12                           688
    x22       c40                           380
    x23       obj1                            1
    x24       obj1                            1
    x24       c20                           376
    x24       c21                           289
    x24       c29                           113
    x25       obj1                            1
    x25       c12                           648
    x25       c14                           845
    x25       c17                           953
    x26       obj1                            1
    x26       c14                           273
    x26       c32                           368
    x27       obj1                            1
    x27       c5                            262
    x27       c11                           881
    x27       c16                           202
    x27       c30                           942
    x27       c34                           745
    x28       obj1                            1
    x28       c9                            624
    x28       c33                           528
    x28       c35                           582
    x29       obj1                            1
    x29       c27                           105
    x29       c29                           689
    x29       c30                           891
    x29       c32                           289
    x29       c35                           278
    x30       obj1                            1
    x30       c13                           565
    x30       c19                           487
    x30       c25                           906
    x31       obj1                            1
    x31       c8                            766
    x31       c33                           191
    x31       c38                           714
    x31       c40                           362
    x32       obj1                            1
    x32       c8                            631
    x32       c9                            963
    x33       obj1                            1
    x33       c3                            477
    x33       c13                           782
    x33       c15                           151
    x33       c17                           235
    x33       c18                           632
    x33       c26                           885
    x33       c29                           861
    x33       c30                           537
    x33       c38                           306
    x34       obj1                            1
    x34       c4                            762
    x34       c6                            153
    x34       c18                           221
    x35       obj1                            1
    x35       c10                           614
    x35       c28                           942
    x36       obj1                            1
    x36       c32                           898
    x36       c37                           874
    x37       obj1                            1
    x37       c6                            779
    x37       c17                           364
    x37       c26                           287
    x37       c37                           865
    x38       obj1                            1
    x38       c20                           763
    x38       c25                           866
    x38       c32                           801
    x38       c33                           147
    x38       c36                           693
    x39       obj1                            1
    x39       c18                           570
    x39       c33                           168
    x40       obj1                            1
    x40       c1                            475
    x40       c2                            569
    x40       c12                           279
    x40       c27                           681
    x40       c36                           119
    x40       c37                           312
    x40       c39                           372
    x41       obj1                            1
    x41       c5                            562
    x41       c6                            831
    x41       c9                            601
    x41       c31                           349
    x41       c34                           285
    x41       c39                           987
    x42       obj1                            1
    x42       c12                           227
    x42       c23                           551
    x42       c31                           228
    x43       obj1                            1
    x43       c21                           488
    x43       c26                           735
    x43       c37                           101
    x44       obj1                            1
    x44       c10                           566
    x44       c12                           881
    x44       c18                           626
    x44       c24                           821
    x45       obj1                            1
    x45       c3                            616
    x45       c7                            256
    x45       c18                           443
    x45       c24                           933
    x45       c37                           767
    x46       obj1                            1
    x46       c1                            976
    x46       c8                            249
    x46       c18                           463
    x47       obj1                            1
    x47       c8                            408
    x47       c29                           215
    x48       obj1                            1
    x48       c5                            669
    x48       c35                           369
    x48       c38                           321
    x49       obj1                            1
    x49       c11                           966
    x50       obj1                            1
    x50       c8                            464
    x50       c17                           293
    x50       c20                           551
    x50       c27                           545
    x50       c28                           816
    x50       c31                           359
    x51       obj1                            1
    x51       c13                           117
    x51       c19                           531
    x51       c34                           588
    x51       c39                           809
    x52       obj1                            1
    x52       c36                           329
    x53       obj1                            1
    x53       c9                            140
    x53       c16                           706
    x54       obj1                            1
    x54       c4                            104
    x54       c7                            429
    x54       c8                            862
    x54       c10                           314
    x54       c19                           745
    x54       c22                           394
    x54       c31                           193
    x54       c37                           921
    x55       obj1                            1
    x55       c36                           473
    x56       obj1                            1
    x56       c15                           756
    x56       c28                           362
    x56       c32                           760
    x57       obj1                            1
    x57       c4                            948
    x57       c14                           282
    x57       c22                           215
    x57       c25                           560
    x57       c26                           255
    x57       c37                           839
    x58       obj1                            1
    x58       c18                           285
    x58       c20                           172
    x58       c33                           854
    x59       obj1                            1
    x59       c7                            447
    x59       c8                            594
    x59       c29                           394
    x59       c37                           313
    x60       obj1                            1
    x60       c15                           832
    x60       c19                           546
    x61       obj1                            1
    x61       c5                            315
    x61       c8                            526
    x61       c10                           932
    x61       c12                           681
    x61       c33                           979
    x62       obj1                            1
    x63       obj1                            1
    x63       c19                           952
    x64       obj1                            1
    x64       c2                            588
    x64       c7                            567
    x64       c17                           616
    x64       c26                           696
    x64       c28                           890
    x64       c30                           201
    x64       c38                           644
    x64       c40                           528
    x65       obj1                            1
    x65       c6                            911
    x65       c16                           622
    x65       c36                           354
    x66       obj1                            1
    x66       c3                            279
    x66       c4                            569
    x66       c5                            541
    x66       c13                           590
    x66       c19                           771
    x66       c30                           107
    x66       c36                           281
    x67       obj1                            1
    x67       c1                            470
    x67       c20                           440
    x67       c31                           555
    x68       obj1                            1
    x68       c7                            366
    x68       c9                            453
    x68       c16                           889
    x68       c32                           752
    x69       obj1                            1
    x69       c7                            995
    x69       c17                           621
    x69       c21                           347
    x69       c33                           525
    x70       obj1                            1
    x70       c7                            671
    x70       c10                           673
    x70       c19                           995
    x70       c23                           871
    x70       c33                           574
    x71       obj1                            1
    x71       c28                           634
    x71       c34                           195
    x71       c36                           368
    x71       c40                           670
    x72       obj1                            1
    x72       c4                            193
    x72       c5                            342
    x72       c18                           191
    x72       c21                           944
    x72       c33                           605
    x72       c35                           305
    x72       c36                           102
    x72       c37                           818
    x73       obj1                            1
    x73       c9                            619
    x73       c32                          1000
    x74       obj1                            1
    x74       c22                           528
    x74       c34                           671
    x75       obj1                            1
    x75       c11                           275
    x75       c15                           486
    x75       c33                           522
    x75       c37                           131
    x76       obj1                            1
    x76       c5                            703
    x76       c34                           230
    x77       obj1                            1
    x77       c20                           796
    x77       c26                           100
    x77       c27                           758
    x78       obj1                            1
    x78       c8                            766
    x78       c10                           184
    x78       c15                           921
    x78       c17                           777
    x78       c22                           599
    x78       c25                           321
    x78       c31                           158
    x79       obj1                            1
    x79       c13                           631
    x79       c16                           295
    x79       c17                           150
    x79       c29                           706
    x79       c34                           450
    x79       c40                           882
    x80       obj1                            1
    x80       c10                           471
    x80       c23                           437
    x80       c25                           576
    x80       c30                           824
    x80       c36                           675
    MARK0001  'MARKER'                 'INTEND'
RHS
    rhs       c1                           1916
    rhs       c2                            975
    rhs       c3                           1477
    rhs       c4                           1821
    rhs       c5                           2964
    rhs       c6                           2114
    rhs       c7                           2183
    rhs       c8                           3270
    rhs       c9                           2009
    rhs       c10                          2114
    rhs       c11                          1479
    rhs       c12                          1702
    rhs       c13                          2341
    rhs       c14                           893
    rhs       c15                          2315
    rhs       c16                          1849
    rhs       c17                          2601
    rhs       c18                          2291
    rhs       c19                          3716
    rhs       c20                          1549
    rhs       c21                          1533
    rhs       c22                          1090
    rhs       c23                          1393
    rhs       c24                          1530
    rhs       c25                          2410
    rhs       c26                          2060
    rhs       c27                          1201
    rhs       c28                          2331
    rhs       c29                          1489
    rhs       c30                          2499
    rhs       c31                          1828
    rhs       c32                          3199
    rhs       c33                          3055
    rhs       c34                          2029
    rhs       c35                          1062
    rhs       c36                          2346
    rhs       c37                          3608
    rhs       c38                          1638
    rhs       c39                          1461
    rhs       c40                          1872
BOUNDS
 LI bnd       x1        0
 LI bnd       x2        0
 LI bnd       x3        0
 LI bnd       x4        0
 LI bnd       x5        0
 LI bnd       x6        0
 LI bnd       x7        0
 LI bnd       x8        0
 LI bnd       x9        0
 LI bnd       x10       0
 LI bnd       x11       0
 LI bnd       x12       0
 LI bnd       x13       0
 LI bnd       x14       0
 LI bnd       x15       0
 LI bnd       x16       0
 LI bnd       x17       0
 LI bnd       x18       0
 LI bnd       x19       0
 LI bnd       x20       0
 LI bnd       x21       0
 LI bnd       x22       0
 LI bnd       x23       0
 LI bnd       x24       0
 LI bnd       x25       0
 LI bnd       x26       0
 LI bnd       x27       0
 LI bnd       x28       0
 LI bnd       x29       0
 LI bnd       x30       0
 LI bnd       x31       0
 LI bnd       x32       0
 LI bnd       x33       0
 LI bnd       x34       0
 LI bnd       x35       0
 LI bnd       x36       0
 LI bnd       x37       0
 LI bnd       x38       0
 LI bnd       x39       0
 LI bnd       x40       0
 LI bnd       x41       0
 LI bnd       x42       0
 LI bnd       x43       0
 LI bnd       x44       0
 LI bnd       x45       0
 LI bnd       x46       0
 LI bnd       x47       0
 LI bnd       x48       0
 LI bnd       x49       0
 LI bnd       x50       0
 LI bnd       x51       0
 LI bnd       x52       0
 LI bnd       x53       0
 LI bnd       x54       0
 LI bnd       x55       0
 LI bnd       x56       0
 LI bnd       x57       0
 LI bnd       x58       0
 LI bnd       x59       0
 LI bnd       x60       0
 LI bnd       x61       0
 LI bnd       x62       0
 LI bnd       x63       0
 LI bnd       x64       0
 LI bnd       x65       0
 LI bnd       x66       0
 LI bnd       x67       0
 LI bnd       x68       0
 LI bnd       x69       0
 LI bnd       x70       0
 LI bnd       x71       0
 LI bnd       x72       0
 LI bnd       x73       0
 LI bnd       x74       0
 LI bnd       x75       0
 LI bnd       x76       0
 LI bnd       x77       0
 LI bnd       x78       0
 LI bnd       x79       0
 LI bnd       x80       0
ENDATA
